0 436 324
1 177 738
2 581 3
3 119 460
4 338 319
5 106 39
6 181 226
7 188 164
8 344 423
9 61 10
10 14 48
11 801 510
12 106 8
13 422 183
14 679 55
15 122 232
16 897 229
17 210 41
18 213 537
19 180 47
20 178 81
21 52 120
22 245 44
23 138 452
24 124 895
25 762 22
26 229 25